1110000000000000
1110000000000000
1110000000000000
1111111111111000
1111111111111000
0000000000111000
0000000000111000
0000000001111000
0000000011111000
0000011111100000
0000111111000000
0111111000000000
0000000000000000
0000000000000000
0000000000000000
0000000000000000
